
Gurobi 9.1.2 (win64, Java) logging started Fri Nov  5 22:26:41 2021

Academic license - for non-commercial use only - expires 2022-10-30
Gurobi Optimizer version 9.1.2 build v9.1.2rc0 (win64)
Thread count: 6 physical cores, 12 logical processors, using up to 12 threads
Optimize a model with 50 rows, 400 columns and 800 nonzeros
Model fingerprint: 0x9d6874e1
Variable types: 0 continuous, 400 integer (400 binary)
Coefficient statistics:
  Matrix range     [1e+00, 1e+03]
  Objective range  [8e+01, 8e+02]
  Bounds range     [1e+00, 1e+00]
  RHS range        [1e+00, 2e+03]
Found heuristic solution: objective 10512.000000
Presolve removed 0 rows and 120 columns
Presolve time: 0.00s
Presolved: 50 rows, 280 columns, 560 nonzeros
Variable types: 0 continuous, 280 integer (280 binary)
Presolved: 50 rows, 280 columns, 560 nonzeros


Root relaxation: objective 1.225006e+04, 108 iterations, 0.00 seconds

    Nodes    |    Current Node    |     Objective Bounds      |     Work
 Expl Unexpl |  Obj  Depth IntInf | Incumbent    BestBd   Gap | It/Node Time

     0     0 12250.0630    0   13 10512.0000 12250.0630  16.5%     -    0s
H    0     0                    11864.000000 12250.0630  3.25%     -    0s
     0     0 12247.3681    0   29 11864.0000 12247.3681  3.23%     -    0s
H    0     0                    11945.000000 12247.3681  2.53%     -    0s
     0     0 12247.3681    0   30 11945.0000 12247.3681  2.53%     -    0s
     0     0 12235.8953    0   37 11945.0000 12235.8953  2.44%     -    0s
     0     0 12229.2053    0   38 11945.0000 12229.2053  2.38%     -    0s
     0     0 12224.4784    0   38 11945.0000 12224.4784  2.34%     -    0s
     0     0 12222.8665    0   36 11945.0000 12222.8665  2.33%     -    0s
     0     0 12222.8665    0   35 11945.0000 12222.8665  2.33%     -    0s
H    0     0                    12017.000000 12222.8665  1.71%     -    0s
     0     0 12220.9447    0   19 12017.0000 12220.9447  1.70%     -    0s
     0     0 12220.9247    0   31 12017.0000 12220.9247  1.70%     -    0s
     0     0 12220.9247    0   34 12017.0000 12220.9247  1.70%     -    0s
     0     0 12220.7047    0   32 12017.0000 12220.7047  1.70%     -    0s
     0     0 12220.7047    0   33 12017.0000 12220.7047  1.70%     -    0s
     0     0 12220.2687    0   40 12017.0000 12220.2687  1.69%     -    0s
     0     0 12220.2687    0   45 12017.0000 12220.2687  1.69%     -    0s
     0     0 12218.8961    0   40 12017.0000 12218.8961  1.68%     -    0s
     0     0 12218.8934    0   44 12017.0000 12218.8934  1.68%     -    0s
     0     0 12218.2661    0   43 12017.0000 12218.2661  1.67%     -    0s
     0     0 12218.2661    0   48 12017.0000 12218.2661  1.67%     -    0s
H    0     0                    12103.000000 12218.2661  0.95%     -    0s
     0     0 12217.8161    0   39 12103.0000 12217.8161  0.95%     -    0s
     0     0 12217.8161    0   39 12103.0000 12217.8161  0.95%     -    0s
     0     0 12217.0168    0   35 12103.0000 12217.0168  0.94%     -    0s
     0     0 12216.8203    0   39 12103.0000 12216.8203  0.94%     -    0s
     0     0 12216.5989    0   39 12103.0000 12216.5989  0.94%     -    0s
     0     0 12216.5946    0   40 12103.0000 12216.5946  0.94%     -    0s
     0     0 12214.8567    0   14 12103.0000 12214.8567  0.92%     -    0s
     0     0 12214.8567    0   18 12103.0000 12214.8567  0.92%     -    0s
     0     0 12214.8567    0   16 12103.0000 12214.8567  0.92%     -    0s
     0     0 12214.8567    0   11 12103.0000 12214.8567  0.92%     -    0s
     0     2 12214.8567    0   11 12103.0000 12214.8567  0.92%     -    0s
H 1387  1083                    12110.000000 12198.9022  0.73%   9.9    1s
 14529  9593 12196.6020   40   46 12110.0000 12198.9022  0.73%  18.0    5s
H19442  5131                    12182.000000 12198.9022  0.14%  19.7    8s
 25929  7052 12195.2961   48   53 12182.0000 12198.9022  0.14%  26.0   10s
 38037  8846 12190.5014   52   44 12182.0000 12192.2952  0.08%  33.7   15s
 54720  6710 12184.7332   58   11 12182.0000 12188.8574  0.06%  44.1   20s
 60180  5961 12185.2346   68   35 12182.0000 12186.3984  0.04%  47.0   25s

Cutting planes:
  Gomory: 14
  Cover: 156
  MIR: 133
  StrongCG: 92
  Flow cover: 10
  Zero half: 12

Explored 65065 nodes (3211290 simplex iterations) in 26.93 seconds
Thread count was 12 (of 12 available processors)

Solution count 7: 12182 12110 12103 ... 10512

Optimal solution found (tolerance 1.00e-04)
Best objective 1.218200000000e+04, best bound 1.218300000000e+04, gap 0.0082%
